NAME : amz0641.91864_91864.tour
COMMENT : Cost = 91864_91864
COMMENT : Found by LKH-AMZ [Keld Helsgaun] Sun May 11 12:38:48 2025
COMMENT : TW viol.: 0 #: 0
TYPE : TOUR
DIMENSION : 117
TOUR_SECTION
15
35
23
48
98
72
113
46
89
29
8
43
30
68
111
79
61
91
25
19
49
57
4
44
5
80
115
108
20
45
17
22
93
52
106
109
18
78
96
59
38
76
63
74
95
31
37
114
103
107
84
53
117
33
60
42
65
90
92
24
27
102
71
2
13
14
83
12
82
62
110
86
94
1
26
41
6
116
101
55
3
54
70
40
112
104
73
99
64
100
11
85
51
32
58
50
87
77
47
69
10
81
88
75
21
36
66
105
97
56
7
67
28
34
39
16
9
-1
EOF
